linear programming/gurobi/sddp/iter3_sub_1^1.sol
# Objective value = -6.0454545454545453e+01
q_2^1 5.4545454545454550e+00
I_1^1 4.5454545454545450e+00
B_1^1 0
theta_3^1 0
